NAME : ch130.tour
COMMENT : best solution found for ch130 (6325.0)
TYPE : TOUR 
DIMENSION : 130
TOUR_SECTION
0
40
70
38
116
82
2
113
107
7
125
29
58
120
77
89
124
84
65
27
114
61
111
104
127
15
44
4
10
75
108
60
128
123
63
68
85
87
25
6
96
69
62
67
97
47
24
112
31
35
83
118
110
122
100
81
56
8
55
64
51
74
73
98
72
91
71
90
5
101
9
13
66
12
95
121
54
22
46
39
36
21
32
20
17
49
129
1
117
79
45
19
92
43
41
50
59
119
52
48
57
105
3
34
53
16
33
30
26
18
99
115
23
14
28
94
78
37
11
86
80
102
76
93
88
109
42
103
106
126
-1
EOF